&control
  calculation = 'scf'
  restart_mode = 'from_scratch'
  pseudo_dir = '.'
  outdir = '_work'
  prefix = 'pref'
  tstress = .true.
  tprnfor = .true.
/
&system
  ibrav = 0
  celldm(1) = 1.0
  nat = 1
  ntyp = 1
  ecutwfc = 90.0
  noncolin = .true.
  lspinorb = .true.
  occupations = 'smearing'
  smearing = 'cold'
  degauss = 0.01
  starting_magnetization(1) = 1
/
&electrons
  conv_thr = 1.0e-12
/
ATOMIC_SPECIES
Fe 1.0 Fe.upf
ATOMIC_POSITIONS crystal
Fe         0.0000000000      0.0000000000      0.0000000000
CELL_PARAMETERS alat
     2.6817994828      2.6817994828      2.6817994828 
    -2.6817994828      2.6817994828      2.6817994828 
    -2.6817994828     -2.6817994828      2.6817994828
K_POINTS automatic
22 22 22  0 0 0
