num_bands = 24
num_wann = 18
exclude_bands = 1-8
dis_win_min  = 2.52
dis_win_max  = 68.59
dis_froz_min = 2.52
dis_froz_max = 30.27

dis_num_iter = 3000
num_iter = 0

spinors = T
begin projections
Fe:sp3d2;dxz;dyz;dxy
end projections

write_hr = true

begin unit_cell_cart
bohr
     2.6817994828      2.6817994828      2.6817994828 
    -2.6817994828      2.6817994828      2.6817994828 
    -2.6817994828     -2.6817994828      2.6817994828
end unit_cell_cart

begin atoms_frac
Fe         0.0000000000      0.0000000000      0.0000000000
end atoms_frac

mp_grid = 4 4 4

begin kpoints
  0.00000000  0.00000000  0.00000000 
  0.00000000  0.00000000  0.25000000 
  0.00000000  0.00000000  0.50000000 
  0.00000000  0.00000000  0.75000000 
  0.00000000  0.25000000  0.00000000 
  0.00000000  0.25000000  0.25000000 
  0.00000000  0.25000000  0.50000000 
  0.00000000  0.25000000  0.75000000 
  0.00000000  0.50000000  0.00000000 
  0.00000000  0.50000000  0.25000000 
  0.00000000  0.50000000  0.50000000 
  0.00000000  0.50000000  0.75000000 
  0.00000000  0.75000000  0.00000000 
  0.00000000  0.75000000  0.25000000 
  0.00000000  0.75000000  0.50000000 
  0.00000000  0.75000000  0.75000000 
  0.25000000  0.00000000  0.00000000 
  0.25000000  0.00000000  0.25000000 
  0.25000000  0.00000000  0.50000000 
  0.25000000  0.00000000  0.75000000 
  0.25000000  0.25000000  0.00000000 
  0.25000000  0.25000000  0.25000000 
  0.25000000  0.25000000  0.50000000 
  0.25000000  0.25000000  0.75000000 
  0.25000000  0.50000000  0.00000000 
  0.25000000  0.50000000  0.25000000 
  0.25000000  0.50000000  0.50000000 
  0.25000000  0.50000000  0.75000000 
  0.25000000  0.75000000  0.00000000 
  0.25000000  0.75000000  0.25000000 
  0.25000000  0.75000000  0.50000000 
  0.25000000  0.75000000  0.75000000 
  0.50000000  0.00000000  0.00000000 
  0.50000000  0.00000000  0.25000000 
  0.50000000  0.00000000  0.50000000 
  0.50000000  0.00000000  0.75000000 
  0.50000000  0.25000000  0.00000000 
  0.50000000  0.25000000  0.25000000 
  0.50000000  0.25000000  0.50000000 
  0.50000000  0.25000000  0.75000000 
  0.50000000  0.50000000  0.00000000 
  0.50000000  0.50000000  0.25000000 
  0.50000000  0.50000000  0.50000000 
  0.50000000  0.50000000  0.75000000 
  0.50000000  0.75000000  0.00000000 
  0.50000000  0.75000000  0.25000000 
  0.50000000  0.75000000  0.50000000 
  0.50000000  0.75000000  0.75000000 
  0.75000000  0.00000000  0.00000000 
  0.75000000  0.00000000  0.25000000 
  0.75000000  0.00000000  0.50000000 
  0.75000000  0.00000000  0.75000000 
  0.75000000  0.25000000  0.00000000 
  0.75000000  0.25000000  0.25000000 
  0.75000000  0.25000000  0.50000000 
  0.75000000  0.25000000  0.75000000 
  0.75000000  0.50000000  0.00000000 
  0.75000000  0.50000000  0.25000000 
  0.75000000  0.50000000  0.50000000 
  0.75000000  0.50000000  0.75000000 
  0.75000000  0.75000000  0.00000000 
  0.75000000  0.75000000  0.25000000 
  0.75000000  0.75000000  0.50000000 
  0.75000000  0.75000000  0.75000000 
end kpoints
